c description: Random 2-CNF over 15 variables and 15 clauses
c generator: CNFgen (0.9.0)
c copyright: (C) 2012-2020 Massimo Lauria <massimo.lauria@uniroma1.it>
c url: https://massimolauria.net/cnfgen
c
p cnf 15 15
-10 -12 0
2 -12 0
8 11 0
5 11 0
-7 11 0
-11 -12 0
12 -15 0
-8 -15 0
10 11 0
5 13 0
-6 -15 0
-8 -12 0
6 15 0
2 3 0
-1 7 0